# ORCA 6.1.1 Input File
# Guanine enol (rare) tautomer geometry optimization
# Level: B3LYP/def2-TZVP with CPCM water solvation
# Part of: Quantum Tautomerization in Glioma Mutagenesis Study
# Authors: Almekkawi et al. (2025)

! B3LYP def2-TZVP OPT FREQ CPCM(Water)
%maxcore 4000
%pal nprocs 4 end

* xyz 0 1
N     1.9234    1.6234    0.0000
C     0.6234    1.2734    0.0000
N    -0.2766    2.2734    0.0000
C    -1.5566    1.8234    0.0000
C    -1.9566    0.4734    0.0000
C    -0.9566   -0.5266    0.0000
N     0.3434   -0.0766    0.0000
C     1.5434   -0.7266    0.0000
N     2.5434    0.1734    0.0000
N    -3.2566    0.0734    0.0000
O    -1.2566   -1.7266    0.0000
H     2.5234    2.4234    0.0000
H    -2.3066    2.5934    0.0000
H     1.6434   -1.8066    0.0000
H    -3.5066   -0.8966    0.0000
H    -0.3566   -2.1066    0.0000
*
